# Objective value = 3.0177953167047383e+02
x[0] 0
x[1] 0
x[2] 0
x[3] 0
x[4] 1
x[5] 1
x[6] 1
x[7] 1
x[8] 0
x[9] 0
x[10] 1
x[11] 1
x[12] 0
x[13] 0
x[14] 1
x[15] 0
x[16] 0
x[17] 0
x[18] 1
x[19] 1
x[20] 0
x[21] 1
x[22] 0
x[23] 0
x[24] 0
x[25] 0
x[26] 0
x[27] 0
x[28] 1
x[29] 1
x[30] 1
x[31] 1
x[32] 0
x[33] 1
x[34] 1
x[35] 1
x[36] 1
x[37] 0
x[38] 1
x[39] 0
x[40] 1
x[41] 0
x[42] 0
x[43] 0
x[44] 0
x[45] 1
x[46] 0
x[47] 1
x[48] 1
x[49] 1
x[50] 0
x[51] 1
x[52] 1
x[53] 1
x[54] 1
x[55] 1
x[56] 1
x[57] 1
x[58] 0
x[59] 0
x[60] 0
x[61] 0
x[62] 1
x[63] 1
x[64] 0
x[65] 0
x[66] 1
x[67] 0
x[68] 1
x[69] 0
x[70] 0
x[71] 1
x[72] 1
x[73] 1
x[74] 0
x[75] 1
x[76] 0
x[77] 0
x[78] 0
x[79] 0
x[80] 0
x[81] 0
x[82] 1
x[83] 1
x[84] 1
x[85] 1
x[86] 0
x[87] 0
x[88] 0
x[89] 0
x[90] 0
x[91] 1
x[92] 1
x[93] 0
x[94] 0
x[95] 1
x[96] 0
x[97] 0
x[98] 1
x[99] 0
x[100] 0
x[101] 1
x[102] 0
x[103] 0
x[104] 0
x[105] 0
x[106] 1
x[107] 0
x[108] 1
x[109] 0
x[110] 1
x[111] 0
x[112] 1
x[113] 0
x[114] 0
x[115] 1
x[116] 1
x[117] 0
x[118] 1
x[119] 0
x[120] 1
x[121] 0
x[122] 1
x[123] 1
x[124] 0
x[125] 0
x[126] 0
x[127] 0
x[128] 1
x[129] 1
x[130] 0
x[131] 0
x[132] 0
x[133] 1
x[134] 0
x[135] 0
x[136] 0
x[137] 0
x[138] 1
x[139] 0
x[140] 0
x[141] 0
x[142] 1
x[143] 1
x[144] 1
x[145] 1
x[146] 0
x[147] 0
x[148] 0
x[149] 1
x[150] 1
x[151] 1
x[152] 0
x[153] 0
x[154] 1
x[155] 1
x[156] 0
x[157] 0
x[158] 1
x[159] 1
x[160] 0
x[161] 0
x[162] 0
x[163] 1
x[164] 0
x[165] 1
x[166] 0
x[167] 0
x[168] 1
x[169] 1
x[170] 0
x[171] 0
x[172] 1
x[173] 1
x[174] 1
x[175] 1
x[176] 1
x[177] 1
x[178] 0
x[179] 1
x[180] 0
x[181] 0
x[182] 0
x[183] 0
x[184] 1
x[185] 0
x[186] 0
x[187] 1
x[188] 1
x[189] 1
x[190] 1
x[191] 1
x[192] 0
x[193] 0
x[194] 0
x[195] 0
x[196] 0
x[197] 0
x[198] 1
x[199] 0
x[200] 0
x[201] 1
x[202] 1
x[203] 0
x[204] 0
x[205] 1
x[206] 1
x[207] 1
x[208] 0
x[209] 1
x[210] 0
x[211] 1
x[212] 1
x[213] 1
x[214] 0
x[215] 1
x[216] 1
x[217] 1
x[218] 0
x[219] 1
x[220] 1
x[221] 1
x[222] 0
x[223] 0
x[224] 1
x[225] 0
x[226] 0
x[227] 0
x[228] 1
x[229] 0
x[230] 1
x[231] 0
x[232] 0
x[233] 0
x[234] 0
x[235] 0
x[236] 0
x[237] 0
x[238] 1
x[239] 1
x[240] 0
x[241] 0
x[242] 0
x[243] 0
x[244] 1
x[245] 1
x[246] 0
x[247] 1
x[248] 0
x[249] 1
x[250] 0
x[251] 1
x[252] 0
x[253] 0
x[254] 0
x[255] 0
x[256] 1
x[257] 1
x[258] 0
x[259] 0
x[260] 0
x[261] 1
x[262] 1
x[263] 1
x[264] 1
x[265] 1
x[266] 1
x[267] 1
x[268] 0
x[269] 0
x[270] 1
x[271] 0
x[272] 0
x[273] 1
x[274] 1
x[275] 0
x[276] 0
x[277] 0
x[278] 1
x[279] 1
x[280] 1
x[281] 1
x[282] 0
x[283] 1
x[284] 1
x[285] 1
x[286] 1
x[287] 0
x[288] 0
x[289] 1
x[290] 0
x[291] 1
x[292] 0
x[293] 0
x[294] 0
x[295] 0
x[296] 0
x[297] 0
x[298] 0
x[299] 0
x[300] 1
x[301] 1
x[302] 1
x[303] 0
x[304] 0
x[305] 1
x[306] 0
x[307] 1
x[308] 1
x[309] 0
x[310] 0
x[311] 0
x[312] 0
x[313] 0
x[314] 0
x[315] 0
x[316] 1
x[317] 0
x[318] 0
x[319] 1
x[320] 1
x[321] 1
x[322] 1
x[323] 0
x[324] 0
x[325] 0
x[326] 1
x[327] 0
x[328] 1
x[329] 0
x[330] 1
x[331] 0
x[332] 0
x[333] 1
x[334] 1
x[335] 1
x[336] 0
x[337] 0
x[338] 0
x[339] 1
x[340] 0
x[341] 0
x[342] 1
x[343] 1
x[344] 1
x[345] 0
x[346] 1
x[347] 0
x[348] 1
x[349] 1
x[350] 1
x[351] 0
x[352] 0
x[353] 1
x[354] 0
x[355] 1
x[356] 1
x[357] 1
x[358] 1
x[359] 0
x[360] 0
x[361] 1
x[362] 0
x[363] 1
x[364] 0
x[365] 0
x[366] 1
x[367] 1
x[368] 0
x[369] 1
x[370] 0
x[371] 0
x[372] 0
x[373] 1
x[374] 1
x[375] 1
x[376] 1
x[377] 0
x[378] 1
x[379] 1
x[380] 0
x[381] 1
x[382] 1
x[383] 0
x[384] 1
x[385] 0
x[386] 0
x[387] 0
x[388] 1
x[389] 0
x[390] 1
x[391] 0
x[392] 0
x[393] 1
x[394] 0
x[395] 0
x[396] 1
x[397] 0
x[398] 0
x[399] 0
x[400] 0
x[401] 0
x[402] 0
x[403] 1
x[404] 1
x[405] 1
x[406] 1
x[407] 1
x[408] 1
x[409] 1
x[410] 0
x[411] 1
x[412] 0
x[413] 0
x[414] 1
x[415] 1
x[416] 1
x[417] 0
x[418] 0
x[419] 1
x[420] 0
x[421] 1
x[422] 0
x[423] 1
x[424] 0
x[425] 0
x[426] 1
x[427] 0
x[428] 1
x[429] 1
x[430] 1
x[431] 0
x[432] 1
x[433] 1
x[434] 1
x[435] 1
x[436] 1
x[437] 1
x[438] 0
x[439] 1
x[440] 0
x[441] 0
x[442] 0
x[443] 1
x[444] 0
x[445] 1
x[446] 1
x[447] 1
x[448] 1
x[449] 0
x[450] 0
x[451] 1
x[452] 0
x[453] 1
x[454] 1
x[455] 1
x[456] 1
x[457] 0
x[458] 0
x[459] 0
x[460] 0
x[461] 1
x[462] 0
x[463] 1
x[464] 1
x[465] 0
x[466] 0
x[467] 0
x[468] 1
x[469] 0
x[470] 0
x[471] 1
x[472] 1
x[473] 1
x[474] 0
x[475] 0
x[476] 0
x[477] 1
x[478] 1
x[479] 1
x[480] 0
x[481] 0
x[482] 1
x[483] 0
x[484] 0
x[485] 0
x[486] 1
x[487] 1
x[488] 1
x[489] 0
x[490] 1
x[491] 1
x[492] 1
x[493] 0
x[494] 1
x[495] 1
x[496] 1
x[497] 1
x[498] 0
x[499] 0
x[500] 1
x[501] 1
x[502] 1
x[503] 1
x[504] 0
x[505] 1
x[506] 1
x[507] 0
x[508] 1
x[509] 0
x[510] 0
x[511] 1
x[512] 0
x[513] 0
x[514] 0
x[515] 1
x[516] 1
x[517] 1
x[518] 0
x[519] 0
x[520] 1
x[521] 0
x[522] 1
x[523] 0
x[524] 0
x[525] 1
x[526] 1
x[527] 0
x[528] 1
x[529] 1
x[530] 0
x[531] 0
x[532] 1
x[533] 1
x[534] 1
x[535] 0
x[536] 1
x[537] 1
x[538] 0
x[539] 0
x[540] 1
x[541] 1
x[542] 1
x[543] 0
x[544] 1
x[545] 0
x[546] 0
x[547] 1
x[548] 1
x[549] 1
x[550] 0
x[551] 1
x[552] 1
x[553] 1
x[554] 1
x[555] 1
x[556] 0
x[557] 1
x[558] 0
x[559] 0
x[560] 0
x[561] 1
x[562] 0
x[563] 0
x[564] 1
x[565] 0
x[566] 0
x[567] 0
x[568] 1
x[569] 0
x[570] 0
x[571] 1
x[572] 0
x[573] 1
x[574] 1
x[575] 1
x[576] 0
x[577] 0
x[578] 0
x[579] 0
x[580] 0
x[581] 0
x[582] 1
x[583] 1
x[584] 0
x[585] 0
x[586] 0
x[587] 1
x[588] 0
x[589] 0
x[590] 0
x[591] 1
x[592] 0
x[593] 1
x[594] 0
x[595] 0
x[596] 0
x[597] 0
x[598] 1
x[599] 0
x[600] 1
x[601] 1
x[602] 1
x[603] 0
x[604] 0
x[605] 1
x[606] 1
x[607] 0
x[608] 0
x[609] 0
x[610] 0
x[611] 0
x[612] 1
x[613] 0
x[614] 0
x[615] 0
x[616] 0
x[617] 1
x[618] 0
x[619] 1
x[620] 0
x[621] 0
x[622] 1
x[623] 1
x[624] 0
x[625] 0
x[626] 1
x[627] 1
x[628] 1
x[629] 1
x[630] 1
x[631] 1
x[632] 1
x[633] 0
x[634] 1
x[635] 1
x[636] 0
x[637] 0
x[638] 1
x[639] 0
x[640] 1
x[641] 1
x[642] 1
x[643] 0
x[644] 1
x[645] 1
x[646] 0
x[647] 0
x[648] 1
x[649] 1
x[650] 0
x[651] 0
x[652] 1
x[653] 1
x[654] 1
x[655] 0
x[656] 0
x[657] 1
x[658] 1
x[659] 1
x[660] 0
x[661] 1
x[662] 0
x[663] 0
x[664] 0
x[665] 1
x[666] 0
x[667] 1
x[668] 1
x[669] 0
x[670] 0
x[671] 1
x[672] 1
x[673] 0
x[674] 0
x[675] 1
x[676] 1
x[677] 1
x[678] 1
x[679] 1
x[680] 1
x[681] 0
x[682] 1
x[683] 0
x[684] 1
x[685] 1
x[686] 0
x[687] 0
x[688] 1
x[689] 1
x[690] 0
x[691] 1
x[692] 1
x[693] 0
x[694] 0
x[695] 0
x[696] 1
x[697] 1
x[698] 1
x[699] 1
x[700] 1
x[701] 1
x[702] 1
x[703] 1
x[704] 1
x[705] 1
x[706] 1
x[707] 1
x[708] 1
x[709] 0
x[710] 0
x[711] 1
x[712] 0
x[713] 0
x[714] 1
x[715] 1
x[716] 1
x[717] 0
x[718] 0
x[719] 0
x[720] 0
x[721] 0
x[722] 0
x[723] 0
x[724] 1
x[725] 0
x[726] 0
x[727] 0
x[728] 1
x[729] 1
x[730] 0
x[731] 0
x[732] 0
x[733] 0
x[734] 1
x[735] 1
x[736] 1
x[737] 0
x[738] 0
x[739] 1
x[740] 0
x[741] 0
x[742] 1
x[743] 1
x[744] 0
x[745] 1
x[746] 0
x[747] 0
x[748] 0
x[749] 1
x[750] 1
x[751] 0
x[752] 0
x[753] 0
x[754] 0
x[755] 0
x[756] 0
x[757] 1
x[758] 1
x[759] 1
x[760] 0
x[761] 1
x[762] 1
x[763] 0
x[764] 0
x[765] 1
x[766] 1
x[767] 1
x[768] 0
x[769] 0
x[770] 0
x[771] 0
x[772] 0
x[773] 0
x[774] 1
x[775] 0
x[776] 1
x[777] 1
x[778] 1
x[779] 0
x[780] 0
x[781] 1
x[782] 1
x[783] 1
x[784] 0
x[785] 0
x[786] 0
x[787] 0
x[788] 0
x[789] 0
x[790] 0
x[791] 0
x[792] 1
x[793] 1
x[794] 1
x[795] 0
x[796] 1
x[797] 1
x[798] 0
x[799] 0
x[800] 1
x[801] 1
x[802] 0
x[803] 1
x[804] 1
x[805] 0
x[806] 0
x[807] 0
x[808] 0
x[809] 0
x[810] 1
x[811] 0
x[812] 0
x[813] 1
x[814] 1
x[815] 1
x[816] 1
x[817] 1
x[818] 1
x[819] 0
x[820] 1
x[821] 1
x[822] 0
x[823] 1
x[824] 0
x[825] 0
x[826] 1
x[827] 0
x[828] 0
x[829] 1
x[830] 0
x[831] 0
x[832] 1
x[833] 1
x[834] 0
x[835] 0
x[836] 1
x[837] 1
x[838] 1
x[839] 0
x[840] 1
x[841] 1
x[842] 0
x[843] 1
x[844] 0
x[845] 1
x[846] 1
x[847] 1
x[848] 1
x[849] 0
x[850] 0
x[851] 0
x[852] 1
x[853] 1
x[854] 0
x[855] 1
x[856] 0
x[857] 1
x[858] 0
x[859] 0
x[860] 0
x[861] 0
x[862] 0
x[863] 1
x[864] 0
x[865] 1
x[866] 1
x[867] 1
x[868] 1
x[869] 1
x[870] 0
x[871] 0
x[872] 1
x[873] 1
x[874] 1
x[875] 1
x[876] 1
x[877] 0
x[878] 1
x[879] 0
x[880] 0
x[881] 0
x[882] 1
x[883] 0
x[884] 1
x[885] 1
x[886] 0
x[887] 1
x[888] 0
x[889] 1
x[890] 0
x[891] 0
x[892] 1
x[893] 0
x[894] 1
x[895] 0
x[896] 1
x[897] 0
x[898] 1
x[899] 0
x[900] 0
x[901] 0
x[902] 0
x[903] 1
x[904] 0
x[905] 0
x[906] 1
x[907] 1
x[908] 1
x[909] 0
x[910] 0
x[911] 0
x[912] 0
x[913] 1
x[914] 1
x[915] 1
x[916] 0
x[917] 0
x[918] 1
x[919] 0
x[920] 0
x[921] 0
x[922] 0
x[923] 0
x[924] 1
x[925] 1
x[926] 0
x[927] 0
x[928] 1
x[929] 0
x[930] 0
x[931] 1
x[932] 0
x[933] 0
x[934] 0
x[935] 1
x[936] 0
x[937] 1
x[938] 1
x[939] 1
x[940] 0
x[941] 1
x[942] 1
x[943] 1
x[944] 0
x[945] 1
x[946] 0
x[947] 0
x[948] 0
x[949] 1
x[950] 0
x[951] 0
x[952] 0
x[953] 1
x[954] 0
x[955] 0
x[956] 0
x[957] 0
x[958] 1
x[959] 1
x[960] 1
x[961] 0
x[962] 1
x[963] 1
x[964] 0
x[965] 0
x[966] 0
x[967] 0
x[968] 1
x[969] 1
x[970] 1
x[971] 1
x[972] 1
x[973] 1
x[974] 0
x[975] 1
x[976] 0
x[977] 1
x[978] 1
x[979] 0
x[980] 1
x[981] 1
x[982] 1
x[983] 0
x[984] 1
x[985] 0
x[986] 1
x[987] 0
x[988] 1
x[989] 1
x[990] 1
x[991] 1
x[992] 1
x[993] 1
x[994] 0
x[995] 0
x[996] 0
x[997] 0
x[998] 1
x[999] 1
